
Log started (V20.1.0.0) Sun Apr 24 16:04:52 2022


Problem 'file.lp' read.
Read time = 0.01 sec. (0.00 ticks)
Version identifier: 20.1.0.0 | 2020-11-10 | 9bedb6d68
Found incumbent of value 0.000000 after 0.00 sec. (0.00 ticks)
Tried aggregator 2 times.
MIP Presolve eliminated 3 rows and 2 columns.
Aggregator did 1 substitutions.
All rows and columns eliminated.
Presolve time = 0.00 sec. (0.01 ticks)

Root node processing (before b&c):
  Real time             =    0.00 sec. (0.01 ticks)
Parallel b&c, 6 threads:
  Real time             =    0.00 sec. (0.00 ticks)
  Sync time (average)   =    0.00 sec.
  Wait time (average)   =    0.00 sec.
                          ------------
Total (root+branch&cut) =    0.00 sec. (0.01 ticks)

Solution pool: 2 solutions saved.

MIP - Integer optimal solution:  Objective =  6.9000000000e+03
Solution time =    0.00 sec.  Iterations = 0  Nodes = 0 (1)
Deterministic time = 0.01 ticks  (8.17 ticks/sec)


Incumbent solution
Variable Name           Solution Value
quantProd#1                 150.000000
quantProd#2                 200.000000
All other variables matching '*' are 0.

Log started (V20.1.0.0) Sun Apr 24 16:06:17 2022


Problem 'file.lp' read.
Read time = 0.00 sec. (0.00 ticks)
Version identifier: 20.1.0.0 | 2020-11-10 | 9bedb6d68
Found incumbent of value 0.000000 after 0.00 sec. (0.00 ticks)
Tried aggregator 2 times.
MIP Presolve eliminated 3 rows and 2 columns.
Aggregator did 1 substitutions.
All rows and columns eliminated.
Presolve time = 0.00 sec. (0.01 ticks)

Root node processing (before b&c):
  Real time             =    0.00 sec. (0.01 ticks)
Parallel b&c, 6 threads:
  Real time             =    0.00 sec. (0.00 ticks)
  Sync time (average)   =    0.00 sec.
  Wait time (average)   =    0.00 sec.
                          ------------
Total (root+branch&cut) =    0.00 sec. (0.01 ticks)

Solution pool: 2 solutions saved.

MIP - Integer optimal solution:  Objective =  6.9000000000e+03
Solution time =    0.00 sec.  Iterations = 0  Nodes = 0 (1)
Deterministic time = 0.01 ticks  (8.17 ticks/sec)


Log started (V20.1.0.0) Sun Apr 24 16:13:08 2022


Problem 'file.lp' read.
Read time = 0.00 sec. (0.00 ticks)
Version identifier: 20.1.0.0 | 2020-11-10 | 9bedb6d68
Tried aggregator 1 time.
LP Presolve eliminated 3 rows and 3 columns.
All rows and columns eliminated.
Presolve time = 0.00 sec. (0.00 ticks)

Dual simplex - Optimal:  Objective =  3.0000000000e+01
Solution time =    0.00 sec.  Iterations = 0 (0)
Deterministic time = 0.00 ticks  (2.61 ticks/sec)


Log started (V20.1.0.0) Sun Apr 24 16:14:01 2022


Problem 'file.lp' read.
Read time = 0.00 sec. (0.00 ticks)
Version identifier: 20.1.0.0 | 2020-11-10 | 9bedb6d68
Tried aggregator 1 time.
LP Presolve eliminated 3 rows and 3 columns.
All rows and columns eliminated.
Presolve time = 0.00 sec. (0.00 ticks)

Dual simplex - Optimal:  Objective =  3.0000000000e+01
Solution time =    0.00 sec.  Iterations = 0 (0)
Deterministic time = 0.00 ticks  (2.61 ticks/sec)


Variable Name           Solution Value
quantAlimentoK@2            200.000000
All other variables matching '*' are 0.

Log started (V20.1.0.0) Sun Apr 24 16:19:10 2022


Problem 'file.lp' read.
Read time = 0.00 sec. (0.00 ticks)
Version identifier: 20.1.0.0 | 2020-11-10 | 9bedb6d68
Found incumbent of value 42.000000 after 0.00 sec. (0.00 ticks)
Tried aggregator 1 time.
MIP Presolve eliminated 3 rows and 3 columns.
All rows and columns eliminated.
Presolve time = 0.00 sec. (0.00 ticks)

Root node processing (before b&c):
  Real time             =    0.00 sec. (0.00 ticks)
Parallel b&c, 6 threads:
  Real time             =    0.00 sec. (0.00 ticks)
  Sync time (average)   =    0.00 sec.
  Wait time (average)   =    0.00 sec.
                          ------------
Total (root+branch&cut) =    0.00 sec. (0.00 ticks)

Solution pool: 2 solutions saved.

MIP - Integer optimal solution:  Objective =  3.0000000000e+01
Solution time =    0.00 sec.  Iterations = 0  Nodes = 0 (1)
Deterministic time = 0.00 ticks  (4.15 ticks/sec)


Log started (V20.1.0.0) Sun Apr 24 16:32:59 2022


Problem 'file.lp' read.
Read time = 0.00 sec. (0.00 ticks)
Version identifier: 20.1.0.0 | 2020-11-10 | 9bedb6d68
Tried aggregator 1 time.
No LP presolve or aggregator reductions.
Presolve time = 0.00 sec. (0.00 ticks)

Iteration log . . .
Iteration:     1   Dual objective     =             0.466667

Dual simplex - Optimal:  Objective =  6.0428571429e-01
Solution time =    0.00 sec.  Iterations = 3 (0)
Deterministic time = 0.01 ticks  (5.06 ticks/sec)


Log started (V20.1.0.0) Sun May  1 00:21:00 2022


Problem 'file.lp' read.
Read time = 0.02 sec. (0.00 ticks)
Version identifier: 20.1.0.0 | 2020-11-10 | 9bedb6d68
Tried aggregator 1 time.
No LP presolve or aggregator reductions.
Presolve time = 0.02 sec. (0.00 ticks)

Iteration log . . .
Iteration:     1   Dual objective     =             0.466667

Dual simplex - Optimal:  Objective =  6.0428571429e-01
Solution time =    0.03 sec.  Iterations = 3 (0)
Deterministic time = 0.00 ticks  (0.16 ticks/sec)


Variable Name           Solution Value
X#1                           1.142857
X#3                           2.428571
All other variables matching '*' are 0.

Log started (V20.1.0.0) Sun May  1 00:26:13 2022


Problem 'file.lp' read.
Read time = 0.00 sec. (0.00 ticks)
Version identifier: 20.1.0.0 | 2020-11-10 | 9bedb6d68
Found incumbent of value 3.150000 after 0.02 sec. (0.00 ticks)
Tried aggregator 1 time.
MIP Presolve modified 3 coefficients.
Reduced MIP has 3 rows, 3 columns, and 9 nonzeros.
Reduced MIP has 0 binaries, 3 generals, 0 SOSs, and 0 indicators.
Presolve time = 0.00 sec. (0.01 ticks)
Tried aggregator 1 time.
Reduced MIP has 3 rows, 3 columns, and 9 nonzeros.
Reduced MIP has 0 binaries, 3 generals, 0 SOSs, and 0 indicators.
Presolve time = 0.00 sec. (0.00 ticks)
MIP emphasis: balance optimality and feasibility.
MIP search method: dynamic search.
Parallel mode: deterministic, using up to 6 threads.
Root relaxation solution time = 0.00 sec. (0.00 ticks)

        Nodes                                         Cuts/
   Node  Left     Objective  IInf  Best Integer    Best Bound    ItCnt     Gap

*     0+    0                            3.1500        0.0000           100.00%
*     0+    0                            2.6700        0.0000           100.00%
      0     0        0.6043     2        2.6700        0.6043        3   77.37%
*     0+    0                            0.6600        0.6043             8.44%
      0     0        cutoff              0.6600                      3    0.00%
Elapsed time = 0.05 sec. (0.03 ticks, tree = 0.01 MB, solutions = 3)

Root node processing (before b&c):
  Real time             =    0.05 sec. (0.03 ticks)
Parallel b&c, 6 threads:
  Real time             =    0.00 sec. (0.00 ticks)
  Sync time (average)   =    0.00 sec.
  Wait time (average)   =    0.00 sec.
                          ------------
Total (root+branch&cut) =    0.05 sec. (0.03 ticks)

Solution pool: 3 solutions saved.

MIP - Integer optimal solution:  Objective =  6.6000000000e-01
Solution time =    0.05 sec.  Iterations = 3  Nodes = 0
Deterministic time = 0.03 ticks  (0.72 ticks/sec)


Incumbent solution
Variable Name           Solution Value
X#1                           1.000000
X#3                           3.000000
All other variables matching '*' are 0.

Log started (V20.1.0.0) Sun May  1 00:36:04 2022


Problem 'file.lp' read.
Read time = 0.00 sec. (0.00 ticks)
Version identifier: 20.1.0.0 | 2020-11-10 | 9bedb6d68
Tried aggregator 1 time.
No LP presolve or aggregator reductions.
Presolve time = 0.00 sec. (0.00 ticks)

Iteration log . . .
Iteration:     1   Dual objective     =             0.466667

Dual simplex - Optimal:  Objective =  6.0428571429e-01
Solution time =    0.00 sec.  Iterations = 3 (0)
Deterministic time = 0.00 ticks  (4.94 ticks/sec)


Variable Name           Solution Value
X#1                           1.142857
X#3                           2.428571
All other variables matching '*' are 0.
